60
1 0 271
2 0 188
2 1 94
3 0 304
3 1 152
3 2 197
4 0 151
4 1 18
4 2 48
4 3 167
5 1 63
5 2 46
5 3 18
5 4 73
6 0 259
6 1 265
6 2 210
6 3 272
6 4 275
6 5 315
7 0 15
7 1 33
7 2 7
7 3 279
7 4 200
7 5 267
7 6 263
8 0 236
8 1 204
8 2 189
8 3 293
8 5 127
8 6 198
8 7 101
9 0 315
9 1 18
9 2 199
9 3 13
9 4 220
9 5 293
9 6 62
9 7 82
9 8 181
10 0 4
10 1 35
10 2 150
10 3 185
10 5 288
10 6 157
10 7 34
10 8 220
10 9 292
11 0 39
11 1 150
11 2 238
11 3 17
11 4 302
11 5 243
11 6 163
11 7 294
11 8 40
11 9 196
11 10 199
12 0 125
12 1 145
12 2 313
12 3 93
12 4 132
12 5 200
12 6 167
12 7 182
12 8 10
12 9 246
12 10 7
12 11 170
13 0 157
13 2 216
13 3 69
13 4 85
13 5 125
13 6 46
13 7 148
13 8 307
13 9 177
13 11 272
13 12 93
14 0 12
14 1 118
14 2 145
14 3 73
14 4 140
14 5 271
14 6 72
14 7 31
14 8 21
14 9 199
14 10 306
14 11 20
14 12 97
14 13 199
15 0 217
15 1 229
15 2 283
15 3 227
15 4 78
15 5 139
15 6 278
15 7 51
15 8 55
15 9 61
15 11 260
15 12 144
15 13 169
15 14 156
16 0 122
16 1 30
16 2 245
16 3 306
16 4 88
16 5 254
16 6 75
16 8 11
16 9 183
16 10 315
16 11 261
16 12 209
16 13 85
16 14 78
16 15 1
17 0 267
17 1 263
17 3 97
17 4 64
17 5 179
17 6 137
17 7 8
17 9 164
17 10 33
17 11 227
17 12 105
17 13 259
17 14 264
17 15 155
17 16 239
18 0 56
18 1 144
18 2 39
18 3 163
18 4 292
18 5 41
18 6 26
18 7 315
18 8 213
18 9 108
18 10 10
18 11 137
18 12 187
18 13 257
18 14 52
18 15 89
18 16 317
18 17 184
19 0 34
19 1 194
19 3 6
19 4 144
19 5 129
19 6 186
19 7 246
19 8 46
19 9 98
19 10 298
19 11 56
19 12 80
19 13 263
19 14 192
19 15 195
19 16 126
19 17 285
19 18 292
20 0 19
20 1 141
20 3 307
20 4 252
20 5 98
20 6 265
20 7 298
20 8 232
20 9 169
20 10 291
20 11 246
20 12 114
20 13 31
20 14 113
20 15 252
20 16 303
20 17 177
20 18 314
20 19 12
21 0 301
21 1 63
21 2 275
21 3 138
21 5 276
21 6 291
21 7 25
21 9 28
21 10 91
21 11 92
21 12 239
21 13 149
21 14 246
21 15 68
21 16 183
21 17 251
21 18 214
21 19 181
21 20 182
22 0 252
22 1 160
22 2 307
22 3 306
22 4 175
22 5 113
22 6 149
22 7 273
22 8 269
22 9 222
22 10 111
22 11 312
22 12 28
22 13 309
22 14 224
22 15 113
22 16 266
22 17 266
22 18 195
22 19 193
22 20 17
22 21 32
23 0 221
23 1 102
23 2 227
23 3 189
23 4 40
23 5 186
23 6 114
23 7 180
23 8 179
23 10 7
23 11 117
23 12 249
23 13 52
23 14 41
23 15 2
23 17 265
23 18 170
23 19 111
23 22 109
24 0 53
24 1 12
24 3 201
24 4 302
24 5 91
24 7 58
24 8 37
24 9 229
24 10 218
24 11 284
24 12 249
24 13 164
24 14 257
24 16 107
24 17 175
24 18 318
24 20 308
24 21 213
24 23 160
25 0 176
25 1 34
25 2 74
25 3 185
25 4 294
25 5 252
25 6 214
25 7 190
25 8 199
25 9 250
25 10 225
25 11 148
25 13 179
25 14 200
25 15 243
25 16 184
25 17 158
25 18 250
25 19 289
25 20 213
25 21 313
25 22 174
25 23 102
25 24 279
26 0 86
26 1 117
26 3 313
26 4 280
26 5 6
26 6 73
26 7 61
26 8 117
26 9 144
26 10 89
26 11 281
26 13 208
26 14 219
26 16 72
26 17 61
26 18 55
26 20 211
26 21 160
26 22 24
26 23 51
26 24 176
26 25 207
27 0 132
27 1 199
27 3 300
27 4 56
27 5 179
27 7 200
27 8 292
27 9 281
27 10 304
27 11 34
27 12 319
27 13 278
27 14 246
27 15 187
27 16 243
27 18 288
27 20 120
27 22 85
27 23 176
27 24 124
27 25 316
27 26 239
28 0 202
28 1 2
28 2 136
28 3 314
28 4 250
28 5 31
28 6 203
28 7 314
28 8 80
28 9 234
28 10 111
28 11 113
28 13 160
28 14 40
28 15 60
28 16 5
28 17 161
28 18 226
28 19 205
28 20 226
28 21 263
28 22 165
28 23 24
28 24 77
28 25 209
28 26 10
28 27 259
29 0 297
29 1 26
29 2 49
29 3 243
29 4 157
29 5 123
29 6 219
29 7 154
29 8 71
29 9 253
29 10 282
29 11 90
29 12 254
29 13 88
29 14 167
29 15 217
29 17 267
29 18 314
29 19 25
29 20 18
29 21 206
29 22 228
29 23 215
29 24 227
29 25 309
29 27 296
29 28 17
30 0 89
30 1 4
30 2 260
30 3 21
30 4 209
30 5 249
30 7 79
30 8 313
30 9 81
30 10 59
30 11 142
30 12 315
30 14 280
30 15 123
30 16 180
30 17 133
30 18 242
30 19 54
30 20 282
30 21 198
30 22 252
30 24 312
30 25 72
30 26 112
30 27 22
30 28 312
30 29 320
31 0 77
31 1 144
31 2 101
31 3 307
31 4 194
31 5 212
31 6 224
31 7 17
31 8 97
31 10 234
31 11 241
31 12 266
31 13 163
31 14 87
31 15 182
31 16 277
31 17 313
31 19 221
31 20 154
31 21 291
31 22 314
31 23 291
31 24 115
31 25 51
31 26 291
31 27 76
31 28 235
31 29 164
31 30 52
32 0 295
32 1 203
32 2 145
32 3 275
32 4 51
32 5 193
32 6 194
32 7 43
32 8 86
32 9 93
32 10 222
32 11 13
32 12 86
32 13 211
32 14 319
32 15 301
32 16 316
32 17 102
32 18 88
32 20 63
32 21 129
32 22 259
32 23 237
32 24 157
32 25 111
32 26 305
32 27 39
32 28 173
32 29 119
32 30 306
32 31 99
33 0 197
33 1 60
33 2 106
33 3 16
33 4 237
33 5 251
33 6 296
33 7 274
33 8 103
33 9 248
33 10 262
33 11 248
33 12 120
33 13 205
33 14 46
33 15 284
33 16 100
33 17 252
33 18 117
33 19 268
33 20 142
33 21 79
33 22 277
33 23 21
33 24 201
33 25 113
33 26 270
33 27 176
33 28 243
33 29 283
33 30 270
33 31 75
33 32 316
34 0 103
34 2 155
34 3 130
34 4 94
34 5 229
34 6 278
34 8 296
34 9 201
34 10 230
34 11 124
34 12 19
34 13 227
34 14 204
34 15 230
34 16 55
34 17 82
34 18 280
34 20 133
34 21 164
34 22 276
34 23 234
34 24 22
34 25 121
34 26 277
34 27 284
34 28 162
34 29 192
34 30 43
34 31 260
34 32 138
34 33 189
35 0 228
35 1 163
35 2 219
35 3 97
35 4 10
35 5 287
35 6 95
35 8 168
35 9 97
35 10 3
35 11 21
35 12 156
35 13 60
35 14 185
35 15 182
35 16 198
35 17 111
35 18 266
35 19 16
35 20 218
35 21 220
35 22 198
35 24 195
35 25 289
35 26 233
35 27 220
35 28 220
35 29 156
35 30 143
35 31 19
35 33 73
35 34 219
36 0 283
36 1 167
36 2 279
36 3 151
36 4 24
36 5 233
36 6 318
36 7 109
36 8 48
36 9 108
36 10 239
36 11 170
36 12 260
36 13 306
36 14 243
36 15 271
36 16 309
36 18 200
36 19 95
36 20 187
36 21 230
36 22 307
36 24 170
36 25 40
36 26 112
36 27 81
36 28 4
36 29 15
36 30 142
36 31 120
36 32 27
36 33 32
36 35 68
37 0 298
37 1 35
37 2 275
37 3 163
37 4 17
37 5 268
37 6 60
37 7 102
37 9 59
37 11 106
37 12 245
37 14 228
37 15 246
37 16 187
37 17 81
37 18 296
37 19 52
37 20 103
37 21 314
37 22 26
37 23 5
37 24 48
37 25 1
37 26 7
37 29 305
37 30 203
37 31 167
37 32 158
37 33 266
37 34 70
37 35 85
37 36 194
38 0 218
38 1 230
38 2 142
38 3 64
38 4 132
38 5 267
38 6 111
38 7 79
38 8 248
38 9 111
38 10 141
38 11 229
38 12 292
38 13 238
38 14 247
38 15 223
38 16 36
38 17 93
38 18 231
38 19 186
38 20 129
38 22 130
38 23 183
38 24 306
38 26 294
38 28 290
38 29 315
38 30 215
38 31 62
38 32 99
38 33 320
38 34 308
38 35 269
38 36 293
38 37 219
39 0 292
39 1 81
39 2 313
39 3 151
39 4 90
39 5 238
39 6 51
39 7 246
39 8 139
39 9 275
39 10 285
39 11 93
39 12 89
39 14 183
39 15 153
39 16 132
39 17 210
39 18 132
39 19 249
39 20 147
39 21 174
39 22 246
39 24 31
39 25 30
39 26 49
39 27 55
39 28 37
39 29 278
39 30 205
39 31 85
39 32 137
39 33 51
39 35 277
39 36 97
40 0 151
40 1 267
40 2 310
40 4 122
40 5 147
40 6 219
40 7 5
40 8 189
40 9 146
40 10 309
40 11 203
40 12 3
40 13 150
40 14 111
40 15 67
40 16 300
40 17 292
40 19 128
40 20 288
40 21 34
40 22 240
40 24 240
40 25 197
40 26 217
40 27 269
40 28 164
40 30 278
40 32 319
40 33 131
40 34 152
40 35 134
40 36 185
40 37 194
40 38 148
40 39 15
41 0 213
41 1 10
41 2 237
41 5 228
41 6 37
41 7 257
41 8 38
41 9 98
41 10 150
41 11 157
41 12 150
41 13 23
41 15 227
41 16 315
41 17 287
41 18 295
41 19 137
41 21 118
41 22 31
41 23 183
41 24 218
41 25 120
41 26 81
41 27 133
41 28 58
41 29 58
41 32 149
41 33 54
41 35 83
41 36 284
41 37 36
41 38 206
41 39 231
42 0 44
42 1 201
42 2 47
42 3 134
42 4 98
42 5 126
42 6 260
42 7 309
42 9 52
42 10 313
42 11 57
42 12 159
42 13 141
42 14 23
42 15 145
42 16 200
42 17 222
42 18 253
42 19 305
42 20 134
42 21 49
42 22 306
42 23 43
42 24 184
42 25 298
42 26 308
42 27 96
42 28 208
42 29 37
42 30 163
42 31 151
42 32 303
42 33 233
42 34 275
42 35 308
42 36 20
42 37 165
42 38 104
42 40 296
42 41 198
43 0 182
43 2 123
43 3 98
43 4 85
43 5 288
43 6 267
43 7 116
43 8 15
43 9 57
43 10 297
43 11 176
43 12 67
43 13 278
43 14 187
43 15 16
43 16 202
43 17 147
43 18 89
43 20 104
43 21 116
43 22 159
43 23 228
43 24 74
43 25 237
43 26 135
43 27 236
43 28 260
43 29 176
43 30 11
43 31 6
43 33 36
43 34 99
43 35 35
43 36 146
43 38 228
43 39 112
43 40 297
43 41 318
43 42 241
44 0 232
44 1 188
44 2 78
44 3 305
44 4 232
44 5 207
44 6 55
44 7 133
44 8 80
44 9 81
44 10 245
44 11 269
44 12 190
44 13 222
44 14 190
44 15 111
44 16 299
44 17 60
44 18 139
44 19 225
44 20 194
44 21 141
44 22 199
44 23 151
44 25 207
44 26 85
44 27 109
44 28 159
44 29 252
44 30 309
44 31 220
44 32 288
44 33 263
44 34 151
44 35 241
44 36 243
44 37 50
44 38 173
44 39 315
44 40 99
44 41 171
44 42 109
44 43 231
45 0 319
45 1 192
45 2 227
45 3 67
45 5 213
45 6 190
45 7 270
45 8 102
45 9 213
45 10 217
45 11 177
45 12 122
45 13 69
45 15 213
45 16 113
45 17 90
45 19 204
45 21 182
45 22 212
45 23 63
45 24 53
45 25 313
45 26 189
45 28 158
45 29 71
45 30 10
45 31 276
45 32 6
45 33 16
45 34 82
45 35 50
45 36 28
45 38 152
45 40 293
45 41 227
45 42 278
45 43 256
45 44 41
46 0 213
46 1 223
46 4 137
46 5 173
46 6 116
46 7 312
46 8 217
46 10 215
46 11 182
46 12 13
46 13 41
46 14 151
46 15 144
46 16 137
46 17 303
46 18 273
46 19 292
46 20 221
46 21 18
46 22 226
46 23 238
46 25 91
46 26 117
46 27 87
46 28 147
46 29 204
46 30 199
46 31 18
46 32 196
46 33 161
46 34 303
46 35 68
46 36 189
46 37 292
46 38 115
46 39 61
46 40 138
46 41 5
46 42 92
46 43 37
46 44 270
47 0 53
47 1 237
47 2 184
47 3 25
47 4 98
47 5 167
47 6 284
47 7 30
47 8 85
47 9 242
47 10 83
47 11 139
47 12 21
47 13 300
47 14 212
47 15 302
47 16 292
47 18 105
47 19 141
47 20 184
47 21 260
47 23 33
47 24 210
47 25 143
47 26 199
47 27 134
47 28 282
47 29 56
47 30 40
47 32 36
47 33 134
47 34 88
47 35 182
47 36 65
47 37 1
47 39 300
47 40 126
47 41 183
47 42 142
47 43 35
47 44 216
47 45 38
47 46 303
48 0 175
48 1 316
48 2 143
48 3 239
48 4 149
48 5 110
48 6 11
48 7 228
48 8 24
48 9 233
48 10 276
48 11 243
48 13 77
48 14 142
48 16 70
48 17 285
48 18 294
48 19 113
48 20 143
48 21 129
48 22 181
48 23 284
48 24 71
48 25 15
48 27 153
48 28 183
48 29 316
48 30 261
48 31 263
48 32 193
48 33 201
48 34 111
48 35 309
48 36 212
48 37 96
48 38 210
48 39 289
48 40 53
48 41 79
48 42 296
48 43 268
48 46 145
49 0 121
49 1 132
49 2 226
49 3 55
49 4 184
49 5 115
49 6 67
49 7 181
49 8 37
49 10 100
49 11 107
49 12 67
49 13 152
49 14 67
49 15 291
49 16 200
49 17 272
49 18 182
49 19 82
49 20 74
49 21 7
49 22 236
49 23 134
49 24 114
49 25 130
49 26 148
49 27 195
49 28 182
49 29 197
49 30 267
49 31 227
49 32 189
49 33 116
49 34 265
49 35 175
49 36 23
49 37 159
49 38 244
49 40 13
49 41 158
49 42 150
49 43 143
49 44 175
49 45 284
49 46 72
49 47 47
49 48 138
50 0 245
50 2 49
50 3 302
50 4 109
50 5 256
50 6 239
50 7 79
50 8 238
50 9 310
50 10 102
50 11 152
50 12 290
50 13 128
50 14 41
50 15 171
50 16 126
50 17 214
50 18 93
50 19 152
50 21 270
50 22 82
50 23 1
50 24 218
50 25 131
50 26 151
50 27 262
50 28 152
50 29 256
50 30 158
50 31 53
50 32 267
50 33 170
50 34 277
50 35 217
50 37 270
50 38 1
50 39 102
50 40 50
50 42 75
50 43 111
50 44 208
50 45 140
50 46 274
50 47 86
50 49 255
51 0 144
51 1 99
51 2 283
51 3 299
51 4 208
51 5 307
51 6 67
51 8 22
51 9 241
51 10 230
51 11 99
51 12 313
51 13 15
51 14 235
51 15 295
51 16 87
51 17 15
51 18 138
51 19 251
51 22 204
51 23 46
51 24 57
51 26 169
51 27 291
51 28 208
51 29 56
51 30 194
51 31 260
51 32 240
51 33 188
51 34 281
51 35 178
51 36 128
51 37 312
51 38 145
51 39 52
51 40 300
51 41 192
51 43 161
51 44 107
51 45 165
51 47 285
51 48 19
51 49 113
51 50 298
52 0 224
52 1 222
52 2 99
52 3 52
52 4 93
52 5 74
52 6 172
52 7 1
52 9 11
52 10 226
52 11 174
52 12 315
52 13 97
52 14 89
52 15 39
52 16 202
52 17 141
52 18 135
52 19 13
52 20 136
52 21 250
52 22 320
52 23 95
52 24 143
52 25 197
52 26 313
52 27 134
52 28 202
52 29 121
52 30 245
52 31 189
52 33 44
52 34 43
52 35 120
52 36 175
52 37 38
52 38 271
52 39 89
52 40 142
52 41 316
52 42 161
52 45 51
52 46 266
52 47 56
52 48 67
52 49 34
52 50 299
52 51 286
53 0 191
53 1 289
53 2 131
53 4 253
53 5 103
53 6 275
53 7 309
53 8 74
53 9 96
53 10 237
53 12 148
53 14 63
53 15 232
53 16 216
53 17 54
53 18 15
53 20 136
53 21 125
53 22 28
53 23 94
53 25 147
53 26 131
53 27 53
53 28 168
53 29 172
53 30 33
53 31 158
53 32 258
53 33 212
53 35 27
53 37 137
53 38 98
53 39 209
53 40 79
53 41 214
53 42 67
53 43 8
53 45 254
53 46 195
53 47 206
53 48 281
53 49 204
53 50 65
53 51 120
54 0 244
54 1 229
54 2 98
54 3 105
54 4 36
54 5 223
54 6 292
54 7 47
54 8 256
54 9 251
54 10 122
54 11 277
54 12 93
54 13 126
54 14 229
54 15 83
54 16 316
54 17 115
54 18 47
54 21 197
54 22 51
54 23 235
54 24 11
54 26 102
54 27 287
54 28 140
54 29 274
54 30 176
54 31 304
54 32 305
54 33 212
54 34 103
54 35 106
54 36 273
54 37 19
54 38 225
54 39 108
54 40 13
54 41 133
54 42 29
54 43 148
54 45 306
54 46 200
54 47 74
54 48 153
54 50 165
54 51 187
54 53 105
55 0 136
55 1 162
55 2 244
55 3 169
55 4 28
55 5 44
55 6 173
55 7 265
55 9 208
55 10 81
55 11 175
55 12 2
55 13 139
55 14 250
55 15 218
55 16 147
55 17 84
55 18 61
55 19 18
55 20 68
55 21 288
55 22 18
55 23 272
55 24 55
55 25 178
55 26 278
55 27 142
55 28 90
55 29 53
55 30 61
55 31 281
55 32 220
55 33 319
55 34 35
55 35 150
55 36 47
55 37 18
55 38 237
55 39 232
55 40 58
55 41 40
55 42 298
55 43 312
55 44 206
55 45 122
55 46 142
55 48 125
55 49 291
55 51 80
55 52 272
55 53 86
55 54 219
56 0 226
56 1 70
56 2 278
56 3 172
56 4 246
56 5 320
56 6 239
56 7 183
56 8 160
56 9 154
56 10 22
56 11 274
56 12 169
56 13 244
56 14 290
56 15 53
56 16 66
56 17 99
56 18 199
56 19 151
56 20 207
56 21 118
56 22 107
56 23 60
56 24 278
56 25 286
56 27 271
56 28 150
56 29 302
56 30 229
56 31 153
56 32 191
56 33 263
56 34 112
56 35 53
56 36 47
56 37 9
56 39 261
56 40 17
56 41 26
56 42 303
56 43 215
56 44 192
56 45 248
56 46 134
56 47 32
56 48 157
56 49 106
56 50 285
56 51 306
56 52 278
56 53 164
56 54 217
56 55 24
57 0 315
57 1 136
57 2 301
57 3 192
57 4 172
57 5 94
57 6 119
57 7 65
57 9 182
57 10 161
57 11 153
57 12 198
57 13 39
57 15 131
57 16 175
57 17 227
57 18 287
57 19 121
57 20 278
57 21 285
57 22 121
57 23 82
57 24 12
57 25 95
57 26 92
57 27 244
57 28 145
57 29 43
57 30 269
57 31 97
57 32 171
57 33 318
57 34 144
57 35 172
57 36 27
57 37 151
57 38 201
57 39 210
57 41 288
57 42 276
57 43 311
57 44 264
57 45 135
57 46 80
57 47 38
57 49 245
57 50 19
57 51 145
57 52 79
57 53 57
57 54 166
57 55 140
57 56 258
58 0 259
58 1 301
58 2 30
58 3 159
58 4 23
58 5 123
58 6 97
58 7 247
58 8 73
58 9 65
58 10 133
58 11 309
58 12 16
58 13 48
58 14 172
58 15 145
58 16 232
58 17 182
58 18 124
58 19 242
58 20 133
58 21 112
58 22 244
58 23 36
58 24 68
58 25 227
58 26 309
58 27 20
58 28 139
58 29 22
58 30 247
58 31 308
58 32 150
58 33 167
58 34 242
58 35 198
58 36 198
58 37 223
58 38 26
58 40 296
58 41 211
58 44 97
58 45 214
58 46 253
58 47 202
58 48 11
58 49 148
58 50 165
58 51 301
58 53 284
58 54 62
58 55 266
58 56 237
58 57 271
59 0 219
59 1 2
59 3 303
59 4 76
59 6 183
59 7 27
59 8 201
59 9 58
59 10 176
59 11 139
59 12 80
59 13 290
59 14 238
59 15 9
59 16 282
59 17 148
59 18 270
59 19 194
59 20 131
59 21 44
59 22 126
59 23 5
59 24 59
59 25 231
59 26 22
59 27 280
59 28 306
59 29 14
59 30 25
59 31 58
59 32 162
59 33 71
59 34 219
59 35 58
59 36 201
59 37 184
59 38 50
59 40 64
59 41 57
59 42 143
59 43 30
59 44 260
59 45 193
59 47 152
59 49 68
59 50 33
59 51 109
59 53 258
59 54 289
59 55 42
59 56 285
59 58 6
